
Welcome to IBM(R) ILOG(R) CPLEX(R) Interactive Optimizer 22.1.1.0
  with Simplex, Mixed Integer & Barrier Optimizers
5725-A06 5725-A29 5724-Y48 5724-Y49 5724-Y54 5724-Y55 5655-Y21
Copyright IBM Corp. 1988, 2022.  All Rights Reserved.

Type 'help' for a list of available commands.
Type 'help' followed by a command name for more
information on commands.

CPLEX> Selected objective sense:  MINIMIZE
Selected objective  name:  00000000
Selected RHS        name:  RHS1
Selected bound      name:  BOUND
Problem 'ee.mps' read.
Read time = 0.03 sec. (3.14 ticks)
CPLEX> New value for time limit in seconds: 7200
CPLEX> New value for parallel optimization mode: -1
CPLEX> New value for default parallel thread count: 40
CPLEX> New value for mixed integer optimality gap tolerance: 1e-13
CPLEX> Version identifier: 22.1.1.0 | 2022-11-28 | 9160aff4d
CPXPARAM_Threads                                 40
CPXPARAM_Parallel                                -1
CPXPARAM_TimeLimit                               7200
CPXPARAM_MIP_Tolerances_MIPGap                   1e-13
Found incumbent of value 0.000000 after 0.00 sec. (0.31 ticks)
Tried aggregator 2 times.
MIP Presolve eliminated 183 rows and 2745 columns.
MIP Presolve modified 5862 coefficients.
Aggregator did 713 substitutions.
Reduced MIP has 3624 rows, 7744 columns, and 28666 nonzeros.
Reduced MIP has 7744 binaries, 0 generals, 0 SOSs, and 0 indicators.
Presolve time = 0.07 sec. (68.82 ticks)
Probing time = 0.03 sec. (5.30 ticks)
Tried aggregator 1 time.
Detecting symmetries...
Reduced MIP has 3624 rows, 7744 columns, and 28666 nonzeros.
Reduced MIP has 7744 binaries, 0 generals, 0 SOSs, and 0 indicators.
Presolve time = 0.03 sec. (21.96 ticks)
Probing time = 0.02 sec. (5.09 ticks)
Clique table members: 18557.
MIP emphasis: balance optimality and feasibility.
MIP search method: dynamic search.
Parallel mode: opportunistic, using up to 40 threads.
Root relaxation solution time = 0.08 sec. (61.95 ticks)

        Nodes                                         Cuts/
   Node  Left     Objective  IInf  Best Integer    Best Bound    ItCnt     Gap

*     0+    0                            0.0000  -1.31000e+13              --- 
*     0+    0                      -3.30000e+12  -1.31000e+13           296.97%
*     0+    0                      -4.40000e+12  -1.31000e+13           197.73%
      0     0  -1.30900e+13   105  -4.40000e+12  -1.30900e+13     1548  197.50%
*     0+    0                      -1.30900e+13  -1.30900e+13             0.00%
      0     0  -1.30900e+13   206  -1.30900e+13     Cuts: 109     1904    0.00%
*     0+    0                      -1.30900e+13  -1.30900e+13             0.00%
      0     0  -1.30900e+13   216  -1.30900e+13      Cuts: 97     2268    0.00%
*     0+    0                      -1.30900e+13  -1.30900e+13             0.00%
*     0+    0                      -1.30900e+13  -1.30900e+13             0.00%
      0     0  -1.00000e+75     0  -1.30900e+13  -1.30900e+13     2268    0.00%
      0     2  -1.30900e+13   216  -1.30900e+13  -1.30900e+13     2268    0.00%
Elapsed time = 1.79 sec. (822.93 ticks, tree = 0.02 MB, solutions = 9)
     67    53        cutoff        -1.30900e+13  -1.30900e+13    37562    0.00%
*    74+   36                      -1.30900e+13  -1.30900e+13             0.00%
    164    65  -1.30900e+13   167  -1.30900e+13  -1.30900e+13    71317    0.00%
    463    82        cutoff        -1.30900e+13  -1.30900e+13    98054    0.00%
   1113    80  -1.30900e+13   181  -1.30900e+13  -1.30900e+13    83904    0.00%
   1838   108  -1.30900e+13    58  -1.30900e+13  -1.30900e+13   124462    0.00%
   2559   256    infeasible        -1.30900e+13  -1.30900e+13   168131    0.00%
   3271   293  -1.30900e+13    19  -1.30900e+13  -1.30900e+13   173276    0.00%
   3994   482  -1.30900e+13    54  -1.30900e+13  -1.30900e+13   228436    0.00%
   4576   500    infeasible        -1.30900e+13  -1.30900e+13   233750    0.00%
   6288  1156  -1.30900e+13   204  -1.30900e+13  -1.30900e+13   409000    0.00%
Elapsed time = 8.07 sec. (3928.68 ticks, tree = 9.81 MB, solutions = 22)
   8210  1285        cutoff        -1.30900e+13  -1.30900e+13   534765    0.00%
   9619  1076  -1.30900e+13    64  -1.30900e+13  -1.30900e+13   677974    0.00%
  10338   397        cutoff        -1.30900e+13  -1.30900e+13   871753    0.00%

GUB cover cuts applied:  4
Clique cuts applied:  18
Cover cuts applied:  1233
Flow cuts applied:  2
Mixed integer rounding cuts applied:  18
Zero-half cuts applied:  5
Gomory fractional cuts applied:  29

Root node processing (before b&c):
  Real time             =    1.10 sec. (821.99 ticks)
Parallel b&c, 40 threads:
  Real time             =    9.15 sec. (6597.88 ticks)
  Sync time (average)   =    1.44 sec.
  Wait time (average)   =    0.00 sec.
                          ------------
Total (root+branch&cut) =   10.26 sec. (7419.87 ticks)

Solution pool: 24 solutions saved.

MIP - Integer optimal solution:  Objective = -1.3089998490e+13
Solution time =   10.40 sec.  Iterations = 955496  Nodes = 10531
Deterministic time = 7419.91 ticks  (713.43 ticks/sec)

CPLEX> Solution 'p25' written to file 'ee.sol'.
CPLEX> 